NPROCS=0
This instance is clustered!
Gurobi Optimizer version 9.0.0 build v9.0.0rc2 (linux64)
Optimize a model with 18 rows, 82 columns and 162 nonzeros
Model fingerprint: 0xa75e2835
Variable types: 1 continuous, 81 integer (81 binary)
Coefficient statistics:
  Matrix range     [1e+00, 1e+00]
  Objective range  [5e-01, 7e+00]
  Bounds range     [1e+00, 1e+00]
  RHS range        [1e+00, 1e+00]
Presolve removed 2 rows and 24 columns
Presolve time: 0.00s
Presolved: 16 rows, 58 columns, 114 nonzeros
Variable types: 1 continuous, 57 integer (57 binary)

Root relaxation: objective 9.693275e+00, 14 iterations, 0.00 seconds

    Nodes    |    Current Node    |     Objective Bounds      |     Work
 Expl Unexpl |  Obj  Depth IntInf | Incumbent    BestBd   Gap | It/Node Time

     0     0   10.05277    0   10          -   10.05277      -     -    0s
H    0     0                      29.9223144   10.05277  66.4%     -    0s
     0     0   10.64485    0   17   29.92231   10.64485  64.4%     -    0s
     0     0   10.64485    0   17   29.92231   10.64485  64.4%     -    0s
H    0     0                      24.5457452   10.64485  56.6%     -    0s
     0     2   10.64485    0   17   24.54575   10.64485  56.6%     -    1s
   393   145 infeasible   18        24.54575   13.82645  43.7%   2.3   24s
   525   185   21.59071    9    6   24.54575   15.35522  37.4%   2.3   31s
   837   234 infeasible   16        24.54575   15.85101  35.4%   2.3   46s
  1209   301   19.16525    9    6   24.54575   17.26143  29.7%   2.2   66s
  1461   316 infeasible   12        24.54575   17.41313  29.1%   2.2   79s
  1761   375 infeasible   13        24.54575   18.18909  25.9%   2.2   96s
  2098   433   21.59274   15    6   24.54575   19.15012  22.0%   2.1  114s
  2370   450   24.36733   17    6   24.54575   19.76251  19.5%   2.1  128s
  2629   502 infeasible   15        24.54575   19.81521  19.3%   2.1  141s
  2709   531   23.02069   12    8   24.54575   20.03464  18.4%   2.1  147s
  2956   452   23.77284   15    8   24.54575   20.57762  16.2%   2.1  159s
  3176   451 infeasible   16        24.54575   21.05317  14.2%   2.1  169s
  3369   425   23.95698   17    -   24.54575   21.08898  14.1%   2.1  178s
  3567   419 infeasible   13        24.54575   21.51370  12.4%   2.1  189s
  3754   396     cutoff   15        24.54575   21.83837  11.0%   2.1  196s
  3911   349 infeasible   17        24.54575   22.11341  9.91%   2.0  203s
  4079   288   23.93016   16    6   24.54575   22.27781  9.24%   2.0  211s
  4251   304 infeasible   17        24.54575   22.75829  7.28%   2.0  218s
  4297   209 infeasible   19        24.54575   22.90760  6.67%   2.0  220s
  4457   120 infeasible   15        24.54575   23.08102  5.97%   2.0  226s
  4618    10 infeasible   18        24.54575   23.40679  4.64%   2.0  231s

Cutting planes:
  Gomory: 1
  Lazy constraints: 1551

Explored 4793 nodes (9308 simplex iterations) in 233.84 seconds
Thread count was 12 (of 12 available processors)

Solution count 2: 24.5457 29.9223 

Optimal solution found (tolerance 1.00e-04)
Best objective 2.454574516799e+01, best bound 2.454574516799e+01, gap 0.0000%

User-callback calls 11582, time in user-callback 233.01 sec
---> instance_name: n_7_h_1.dat
---> algo_index: 1
---> obj_value: 24.5457
---> total_time: 233.916
---> total_time_gurobi: 233.842
---> total_nb_benders_cuts: 1443
---> total_nb_subtour_cuts: 110
---> total_nb_user_cuts: 0
---> GRB_IntAttr_Status: 2
---> optimality_gap: 0
---> node_count: 4793
 =====>>>>> Solution is written to file in <../ret/model_outs> !!!
===>> All Done!
